54
1 0 43
2 0 4
2 1 2
3 0 32
3 1 3
3 2 29
4 0 36
4 1 5
4 2 27
4 3 32
5 0 4
5 1 29
5 2 26
5 3 26
5 4 7
6 0 15
6 1 35
6 2 7
6 3 32
6 4 17
6 5 46
7 0 24
7 1 5
7 2 7
7 3 13
7 4 39
7 5 5
7 6 25
8 0 45
8 1 35
8 2 13
8 3 43
8 4 34
8 5 34
8 6 47
8 7 2
9 0 14
9 1 3
9 2 17
9 3 40
9 4 6
9 5 35
9 6 44
9 7 43
9 8 29
10 0 14
10 1 48
10 2 34
10 3 15
10 4 10
10 5 24
10 6 5
10 7 19
10 8 10
10 9 26
11 0 5
11 1 38
11 2 44
11 3 18
11 4 38
11 5 17
11 6 28
11 7 30
11 8 30
11 9 25
11 10 31
12 0 4
12 1 22
12 2 45
12 3 39
12 4 31
12 5 47
12 6 2
12 7 17
12 8 19
12 9 11
12 10 31
12 11 7
13 0 37
13 1 46
13 2 3
13 3 35
13 4 13
13 5 23
13 6 18
13 7 5
13 8 8
13 9 15
13 10 17
13 11 7
13 12 15
14 0 8
14 1 49
14 2 7
14 3 35
14 4 21
14 5 13
14 6 23
14 7 45
14 8 45
14 9 43
14 10 20
14 11 39
14 12 49
14 13 26
15 0 48
15 1 38
15 2 26
15 3 1
15 4 6
15 5 26
15 6 20
15 7 36
15 8 2
15 9 10
15 10 16
15 11 49
15 12 37
15 13 17
15 14 13
16 0 42
16 1 7
16 2 38
16 3 41
16 4 18
16 5 45
16 6 44
16 7 20
16 8 32
16 9 30
16 10 36
16 11 26
16 12 2
16 13 4
16 14 5
16 15 15
17 0 10
17 1 28
17 2 43
17 3 35
17 4 4
17 5 45
17 6 36
17 7 40
17 8 2
17 9 36
17 10 49
17 11 24
17 12 21
17 13 29
17 14 7
17 15 11
17 16 31
18 0 17
18 1 43
18 2 46
18 3 8
18 4 25
18 5 27
18 6 44
18 7 22
18 8 45
18 9 47
18 10 15
18 11 23
18 12 12
18 13 11
18 14 2
18 15 9
18 16 13
18 17 21
19 0 26
19 1 19
19 2 37
19 3 24
19 4 3
19 5 41
19 6 14
19 7 2
19 8 29
19 9 11
19 10 35
19 11 31
19 12 6
19 13 38
19 14 41
19 15 13
19 16 14
19 17 22
19 18 19
20 0 17
20 1 14
20 2 33
20 3 32
20 4 15
20 5 45
20 6 35
20 7 18
20 8 23
20 9 40
20 10 27
20 11 15
20 12 17
20 13 16
20 14 6
20 15 1
20 16 46
20 17 48
20 18 20
20 19 43
21 0 38
21 1 38
21 2 22
21 3 34
21 4 7
21 5 12
21 6 17
21 7 6
21 8 23
21 9 9
21 10 48
21 11 30
21 12 32
21 13 41
21 14 49
21 15 10
21 16 9
21 17 23
21 18 3
21 19 38
21 20 3
22 0 27
22 1 24
22 2 31
22 3 1
22 4 42
22 5 9
22 6 9
22 7 20
22 8 9
22 9 42
22 10 10
22 11 42
22 12 26
22 13 9
22 14 13
22 15 31
22 16 6
22 17 38
22 18 45
22 19 2
22 20 14
22 21 25
23 0 36
23 1 32
23 2 21
23 3 47
23 4 38
23 5 44
23 6 13
23 7 40
23 8 19
23 9 22
23 10 13
23 11 35
23 12 44
23 13 26
23 14 2
23 15 34
23 16 26
23 17 38
23 18 38
23 19 12
23 20 14
23 21 27
23 22 24
24 0 30
24 1 13
24 2 42
24 3 7
24 4 3
24 5 43
24 6 47
24 7 11
24 8 1
24 9 23
24 10 35
24 11 16
24 12 11
24 13 15
24 14 47
24 15 33
24 16 32
24 17 27
24 18 28
24 19 40
24 20 29
24 21 2
24 22 3
24 23 35
25 0 5
25 1 44
25 2 37
25 3 8
25 4 45
25 5 8
25 6 48
25 7 7
25 8 19
25 9 11
25 10 36
25 11 28
25 12 3
25 13 22
25 14 43
25 15 25
25 16 49
25 17 24
25 18 34
25 19 49
25 20 45
25 21 8
25 22 20
25 23 38
25 24 40
26 0 36
26 1 6
26 2 32
26 3 25
26 4 9
26 5 3
26 6 24
26 7 25
26 8 26
26 9 7
26 10 40
26 11 41
26 12 36
26 13 19
26 14 33
26 15 45
26 16 15
26 17 30
26 18 3
26 19 38
26 20 32
26 21 20
26 22 14
26 23 38
26 24 15
26 25 7
27 0 45
27 1 44
27 2 49
27 3 1
27 4 15
27 5 21
27 6 22
27 7 44
27 8 35
27 9 10
27 10 18
27 11 29
27 12 23
27 13 1
27 14 41
27 15 4
27 16 5
27 17 40
27 18 26
27 19 19
27 20 36
27 21 32
27 22 48
27 23 25
27 24 34
27 25 33
27 26 37
28 0 17
28 1 3
28 2 37
28 3 43
28 4 33
28 5 12
28 6 49
28 7 21
28 8 31
28 9 13
28 10 38
28 11 44
28 12 48
28 13 3
28 14 45
28 15 17
28 16 28
28 17 3
28 18 47
28 19 6
28 20 20
28 21 48
28 22 41
28 23 25
28 24 17
28 25 9
28 26 13
28 27 43
29 0 19
29 1 27
29 2 45
29 3 9
29 4 1
29 5 28
29 6 36
29 7 29
29 8 7
29 9 35
29 10 18
29 11 43
29 12 19
29 13 40
29 14 29
29 15 39
29 16 4
29 17 38
29 18 38
29 19 20
29 20 3
29 21 37
29 22 5
29 23 22
29 24 44
29 25 43
29 26 11
29 27 37
29 28 28
30 0 45
30 1 6
30 2 27
30 3 27
30 4 30
30 5 32
30 6 12
30 7 30
30 8 24
30 9 6
30 10 44
30 11 1
30 12 18
30 13 34
30 14 19
30 15 3
30 16 4
30 17 17
30 18 9
30 19 40
30 20 35
30 21 2
30 22 4
30 23 28
30 24 42
30 25 6
30 26 18
30 27 24
30 28 19
30 29 6
31 0 20
31 1 31
31 2 32
31 3 18
31 4 10
31 5 39
31 6 25
31 7 14
31 8 44
31 9 13
31 10 12
31 11 17
31 12 5
31 13 30
31 14 17
31 15 26
31 16 16
31 17 18
31 18 38
31 19 25
31 20 8
31 21 1
31 22 11
31 23 18
31 24 46
31 25 15
31 26 18
31 27 34
31 28 34
31 29 35
31 30 6
32 0 27
32 1 15
32 2 30
32 3 33
32 4 16
32 5 27
32 6 34
32 7 15
32 8 41
32 9 27
32 10 29
32 11 39
32 12 46
32 13 11
32 14 19
32 15 31
32 16 26
32 17 10
32 18 5
32 19 9
32 20 40
32 21 38
32 22 44
32 23 1
32 24 7
32 25 20
32 26 26
32 27 32
32 28 43
32 29 16
32 30 39
32 31 23
33 0 43
33 1 41
33 2 21
33 3 30
33 4 38
33 5 28
33 6 49
33 7 14
33 8 6
33 9 42
33 10 36
33 11 21
33 12 2
33 13 36
33 14 11
33 15 45
33 16 38
33 17 24
33 18 30
33 19 38
33 20 28
33 21 29
33 22 23
33 23 43
33 24 35
33 25 28
33 26 34
33 27 15
33 28 18
33 29 48
33 30 3
33 31 14
33 32 48
34 0 35
34 1 6
34 2 13
34 3 6
34 4 12
34 5 40
34 6 34
34 7 4
34 8 23
34 9 42
34 10 23
34 11 23
34 12 16
34 13 36
34 14 15
34 15 2
34 16 16
34 17 46
34 18 5
34 19 49
34 20 35
34 21 38
34 22 23
34 23 34
34 24 42
34 25 43
34 26 44
34 27 38
34 28 49
34 29 9
34 30 42
34 31 28
34 32 35
34 33 3
35 0 19
35 1 43
35 2 19
35 3 43
35 4 29
35 5 2
35 6 40
35 7 12
35 8 9
35 9 10
35 10 34
35 11 22
35 12 5
35 13 2
35 14 17
35 15 6
35 16 25
35 17 17
35 18 20
35 19 6
35 20 8
35 21 11
35 22 44
35 23 47
35 24 38
35 25 45
35 26 9
35 27 22
35 28 26
35 29 25
35 30 26
35 31 15
35 32 18
35 33 35
35 34 22
36 0 45
36 1 27
36 2 2
36 3 47
36 4 34
36 5 21
36 6 23
36 7 18
36 8 10
36 9 31
36 10 39
36 11 24
36 12 26
36 13 46
36 14 17
36 15 45
36 16 21
36 17 37
36 18 13
36 19 16
36 20 48
36 21 40
36 22 4
36 23 22
36 24 3
36 25 26
36 26 47
36 27 25
36 28 41
36 29 6
36 30 46
36 31 10
36 32 44
36 33 25
36 34 4
36 35 11
37 0 38
37 1 26
37 2 10
37 3 20
37 4 20
37 5 1
37 6 40
37 7 33
37 8 6
37 9 37
37 10 20
37 11 15
37 12 23
37 13 12
37 14 45
37 15 22
37 16 15
37 17 11
37 18 16
37 19 35
37 20 21
37 21 39
37 22 43
37 23 21
37 24 45
37 25 43
37 26 32
37 27 31
37 28 10
37 29 26
37 30 19
37 31 7
37 32 3
37 33 2
37 34 8
37 35 14
37 36 12
38 0 46
38 1 22
38 2 36
38 3 34
38 4 20
38 5 44
38 6 7
38 7 10
38 8 33
38 9 30
38 10 7
38 11 4
38 12 15
38 13 39
38 14 32
38 15 17
38 16 34
38 17 3
38 18 13
38 19 11
38 20 41
38 21 4
38 22 32
38 23 6
38 24 28
38 25 34
38 26 8
38 27 25
38 28 23
38 29 18
38 30 27
38 31 3
38 32 19
38 33 5
38 34 2
38 35 11
38 36 18
38 37 24
39 0 19
39 1 47
39 2 41
39 3 24
39 4 29
39 5 18
39 6 13
39 7 43
39 8 22
39 9 24
39 10 39
39 11 31
39 12 2
39 13 14
39 14 5
39 15 40
39 16 43
39 17 46
39 18 11
39 19 30
39 20 18
39 21 30
39 22 6
39 23 12
39 24 35
39 25 27
39 26 26
39 27 29
39 28 20
39 29 3
39 30 37
39 31 15
39 32 2
39 33 40
39 34 8
39 35 31
39 36 4
39 37 22
39 38 46
40 0 30
40 1 31
40 2 21
40 3 38
40 4 9
40 5 27
40 6 33
40 7 17
40 8 9
40 9 23
40 10 15
40 11 31
40 12 37
40 13 19
40 14 40
40 15 44
40 16 49
40 17 48
40 18 5
40 19 19
40 20 20
40 21 39
40 22 16
40 23 13
40 24 19
40 25 3
40 26 41
40 27 17
40 28 17
40 29 36
40 30 10
40 31 34
40 32 48
40 33 37
40 34 8
40 35 2
40 36 5
40 37 6
40 38 15
40 39 32
41 0 22
41 1 42
41 2 26
41 3 5
41 4 7
41 5 5
41 6 34
41 7 48
41 8 42
41 9 2
41 10 2
41 11 36
41 12 47
41 13 7
41 14 3
41 15 41
41 16 39
41 17 3
41 18 18
41 19 15
41 20 20
41 21 16
41 22 13
41 23 2
41 24 1
41 25 16
41 26 10
41 27 28
41 28 44
41 29 22
41 30 35
41 31 14
41 32 4
41 33 26
41 34 38
41 35 49
41 36 23
41 37 19
41 38 13
41 39 35
41 40 18
42 0 42
42 1 45
42 2 36
42 3 41
42 4 5
42 5 31
42 6 24
42 7 49
42 8 7
42 9 14
42 10 40
42 11 23
42 12 5
42 13 17
42 14 28
42 15 15
42 16 22
42 17 49
42 18 36
42 19 20
42 20 19
42 21 20
42 22 22
42 23 6
42 24 41
42 25 24
42 26 24
42 27 17
42 28 48
42 29 16
42 30 16
42 31 32
42 32 20
42 33 43
42 34 44
42 35 10
42 36 43
42 37 46
42 38 4
42 39 8
42 40 29
42 41 16
43 0 17
43 1 8
43 2 23
43 3 29
43 4 30
43 5 6
43 6 35
43 7 4
43 8 3
43 9 6
43 10 33
43 11 48
43 12 6
43 13 19
43 14 38
43 15 25
43 16 16
43 17 27
43 18 12
43 19 30
43 20 37
43 21 36
43 22 26
43 23 37
43 24 32
43 25 48
43 26 46
43 27 34
43 28 6
43 29 17
43 30 37
43 31 16
43 32 44
43 33 26
43 34 44
43 35 36
43 36 6
43 37 37
43 38 44
43 39 24
43 40 46
43 41 21
43 42 35
44 0 30
44 1 38
44 2 38
44 3 36
44 4 24
44 5 31
44 6 22
44 7 43
44 8 10
44 9 19
44 10 36
44 11 32
44 12 25
44 13 18
44 14 6
44 15 42
44 16 37
44 17 24
44 18 41
44 19 39
44 20 26
44 21 33
44 22 12
44 23 28
44 24 24
44 25 17
44 26 40
44 27 37
44 28 46
44 29 25
44 30 48
44 31 20
44 32 7
44 33 9
44 34 28
44 35 15
44 36 5
44 37 33
44 38 3
44 39 37
44 40 37
44 41 41
44 42 14
44 43 30
45 0 24
45 1 44
45 2 47
45 3 3
45 4 17
45 5 15
45 6 24
45 7 22
45 8 43
45 9 45
45 10 43
45 11 12
45 12 37
45 13 38
45 14 22
45 15 43
45 16 9
45 17 19
45 18 41
45 19 45
45 20 24
45 21 11
45 22 33
45 23 3
45 24 17
45 25 33
45 26 29
45 27 36
45 28 38
45 29 37
45 30 33
45 31 19
45 32 31
45 33 26
45 34 22
45 35 30
45 36 19
45 37 32
45 38 42
45 39 38
45 40 11
45 41 37
45 42 11
45 43 2
45 44 46
46 0 34
46 1 34
46 2 19
46 3 11
46 4 22
46 5 45
46 6 21
46 7 44
46 8 29
46 9 46
46 10 15
46 11 39
46 12 25
46 13 24
46 14 19
46 15 42
46 16 32
46 17 10
46 18 46
46 19 40
46 20 35
46 21 22
46 22 49
46 23 36
46 24 16
46 25 30
46 26 3
46 27 34
46 28 42
46 29 25
46 30 9
46 31 12
46 32 9
46 33 35
46 34 35
46 35 30
46 36 32
46 37 5
46 38 46
46 39 10
46 40 34
46 41 20
46 42 46
46 43 45
46 44 31
46 45 42
47 0 39
47 1 4
47 2 28
47 3 24
47 4 45
47 5 8
47 6 39
47 7 49
47 8 46
47 9 25
47 10 35
47 11 39
47 12 22
47 13 48
47 14 14
47 15 38
47 16 38
47 17 43
47 18 36
47 19 3
47 20 24
47 21 39
47 22 35
47 23 32
47 24 2
47 25 4
47 26 16
47 27 32
47 28 4
47 29 19
47 30 34
47 31 35
47 32 14
47 33 10
47 34 47
47 35 33
47 36 28
47 37 10
47 38 44
47 39 31
47 40 6
47 41 16
47 42 24
47 43 1
47 44 41
47 45 24
47 46 14
48 0 3
48 1 32
48 2 22
48 3 9
48 4 4
48 5 10
48 6 14
48 7 2
48 8 21
48 9 35
48 10 21
48 11 24
48 12 48
48 13 4
48 14 14
48 15 21
48 16 10
48 17 17
48 18 47
48 19 19
48 20 35
48 21 16
48 22 14
48 23 28
48 24 30
48 25 49
48 26 30
48 27 22
48 28 43
48 29 30
48 30 39
48 31 2
48 32 37
48 33 4
48 34 8
48 35 16
48 36 48
48 37 1
48 38 4
48 39 18
48 40 10
48 41 5
48 42 26
48 43 8
48 44 37
48 45 2
48 46 20
48 47 21
49 0 1
49 1 13
49 2 15
49 3 19
49 4 37
49 5 40
49 6 39
49 7 35
49 8 13
49 9 29
49 10 44
49 11 11
49 12 4
49 13 19
49 14 38
49 15 23
49 16 41
49 17 28
49 18 5
49 19 41
49 20 16
49 21 29
49 22 37
49 23 31
49 24 43
49 25 14
49 26 22
49 27 7
49 28 33
49 29 41
49 30 29
49 31 44
49 32 25
49 33 46
49 34 41
49 35 9
49 36 16
49 37 20
49 38 22
49 39 13
49 40 9
49 41 11
49 42 2
49 43 7
49 44 43
49 45 43
49 46 49
49 47 48
49 48 8
50 0 33
50 1 28
50 2 47
50 3 9
50 4 40
50 5 48
50 6 36
50 7 41
50 8 1
50 9 9
50 10 37
50 11 3
50 12 34
50 13 46
50 14 19
50 15 6
50 16 38
50 17 42
50 18 26
50 19 29
50 20 11
50 21 28
50 22 1
50 23 29
50 24 17
50 25 28
50 26 48
50 27 12
50 28 31
50 29 47
50 30 13
50 31 38
50 32 35
50 33 16
50 34 18
50 35 22
50 36 31
50 37 27
50 38 14
50 39 10
50 40 32
50 41 4
50 42 30
50 43 6
50 44 7
50 45 7
50 46 34
50 47 28
50 48 14
50 49 43
51 0 22
51 1 37
51 2 34
51 3 17
51 4 17
51 5 29
51 6 15
51 7 45
51 8 35
51 9 10
51 10 39
51 11 17
51 12 7
51 13 9
51 14 33
51 15 43
51 16 44
51 17 7
51 18 39
51 19 44
51 20 21
51 21 6
51 22 37
51 23 1
51 24 25
51 25 14
51 26 33
51 27 34
51 28 27
51 29 7
51 30 49
51 31 36
51 32 48
51 33 11
51 34 27
51 35 9
51 36 5
51 37 20
51 38 7
51 39 36
51 40 17
51 41 5
51 42 45
51 43 17
51 44 11
51 45 27
51 46 41
51 47 35
51 48 14
51 49 32
51 50 30
52 0 9
52 1 29
52 2 2
52 3 48
52 4 36
52 5 5
52 6 17
52 7 29
52 8 16
52 9 21
52 10 2
52 11 10
52 12 46
52 13 4
52 14 47
52 15 22
52 16 45
52 17 13
52 18 37
52 19 14
52 20 8
52 21 32
52 22 42
52 23 36
52 24 45
52 25 39
52 26 5
52 27 33
52 28 35
52 29 3
52 30 2
52 31 38
52 32 36
52 33 15
52 34 46
52 35 40
52 36 4
52 37 36
52 38 47
52 39 36
52 40 3
52 41 17
52 42 29
52 43 37
52 44 49
52 45 12
52 46 34
52 47 41
52 48 4
52 49 40
52 50 3
52 51 24
53 0 6
53 1 48
53 2 14
53 3 45
53 4 4
53 5 25
53 6 19
53 7 28
53 8 13
53 9 11
53 10 17
53 11 10
53 12 10
53 13 47
53 14 35
53 15 18
53 16 17
53 17 10
53 18 33
53 19 16
53 20 34
53 21 29
53 22 26
53 23 38
53 24 28
53 25 22
53 26 14
53 27 34
53 28 16
53 29 24
53 30 34
53 31 24
53 32 27
53 33 49
53 34 19
53 35 44
53 36 9
53 37 13
53 38 22
53 39 32
53 40 35
53 41 4
53 42 40
53 43 32
53 44 46
53 45 27
53 46 18
53 47 10
53 48 25
53 49 27
53 50 23
53 51 35
53 52 48
